2 30
1302 972 
0 95 88 14 6 94 12 2
1 57 48 75 83 33 34 2
2 58 66 43 37 26 11 1
3 97 95 35 42 56 90 2
4 88 84 26 27 85 89 1
5 96 90 43 36 20 47 1
6 11 1 32 28 51 9 1
7 80 84 31 22 22 39 1
8 74 77 59 52 51 69 1
9 92 98 35 45 14 59 1
10 68 64 1 2 14 4 1
11 23 19 37 30 8 82 2
12 53 52 102 95 3 66 2
13 73 72 23 19 95 6 2
14 52 45 61 71 95 28 2
15 3 1 19 15 59 12 1
16 21 25 6 12 85 64 2
17 53 56 45 51 74 12 1
18 17 21 46 44 52 86 2
19 45 50 26 17 80 67 1
20 87 93 92 92 84 91 2
21 6 12 76 78 48 21 2
22 13 20 63 71 91 67 1
23 30 23 2 5 21 33 2
24 80 77 97 95 91 94 2
25 40 32 53 47 99 57 2
26 75 74 3 9 1 32 2
27 12 8 30 38 49 94 1
28 96 86 3 8 89 5 1
29 64 67 33 38 79 72 2
